110 
300 
-0.5 0 0 0
0.5 0 0 -19
-7 -7 -35 -90
-7 -5 35 -15
-7 -3 -35 -74
-7 -1 35 -17
-7 1 -35 -123
-7 3 -35 -112
-7 5 35 -23
-7 7 35 -18
-5 -7 -35 -120
-5 -5 25 -25
-5 -3 25 -13
-5 -1 25 -14
-5 1 25 -17
-5 3 25 -29
-5 5 -25 -117
-5 7 -35 -60
-3 -7 35 -16
-3 -5 -25 -82
-3 -3 -15 -107
-3 -1 15 -21
-3 1 15 -14
-3 3 15 -10
-3 5 -25 -80
-3 7 -35 -77
-1 -7 35 -12
-1 -5 25 -18
-1 -3 -15 -133
-1 -1 5 -16
-1 1 -5 -108
-1 3 15 -29
-1 5 25 -28
-1 7 35 -18
1 -7 -35 -61
1 -5 25 -17
1 -3 -15 -84
1 -1 5 -20
1 1 5 -29
1 3 15 -21
1 5 25 -15
1 7 35 -12
3 -7 35 -24
3 -5 -25 -72
3 -3 -15 -137
3 -1 15 -20
3 1 15 -24
3 3 -15 -87
3 5 25 -10
3 7 35 -16
5 -7 -35 -99
5 -5 -25 -98
5 -3 25 -27
5 -1 -25 -85
5 1 -25 -113
5 3 25 -18
5 5 -25 -63
5 7 35 -23
7 -7 -35 -122
7 -5 35 -23
7 -3 -35 -68
7 -1 -35 -80
7 1 -35 -110
7 3 -35 -118
7 5 -35 -90
7 7 -35 -117
